SDVRP instances/p11/p11_00_tsplib0_split0.vrp
NAME:.\SDVRP_split
BEST_KNOWN: 0
COMMENT: 0
DIMENSION: 380
CAPACITY: 200
EDGE_WEIGHT_FORMAT: FUNCTION
EDGE_WEIGHT_TYPE: EXACT_2D
NODE_COORD_SECTION
1 0.00000 0.00000
2 15 -44
3 15 -44
4 15 -44
5 15 -44
6 15 -42
7 15 -42
8 15 -42
9 15 -42
10 21 -40
11 21 -40
12 21 -40
13 22 -40
14 22 -40
15 22 -40
16 21 -38
17 21 -38
18 21 -38
19 22 -36
20 22 -36
21 22 -36
22 24 -36
23 24 -36
24 36 -36
25 36 -36
26 36 -36
27 36 -36
28 36 -36
29 36 -36
30 25 -38
31 25 -38
32 25 -38
33 24 -39
34 24 -39
35 24 -39
36 24 -39
37 25 -40
38 25 -40
39 25 -40
40 25 -40
41 37 -39
42 37 -39
43 37 -39
44 37 -39
45 37 -39
46 30 -40
47 30 -40
48 30 -40
49 29 -42
50 29 -42
51 26 -42
52 26 -42
53 26 -42
54 26 -42
55 26 -42
56 63 -39
57 63 -39
58 63 -39
59 63 -37
60 63 -37
61 63 -37
62 63 -37
63 63 -37
64 14 -9
65 14 -9
66 66 -39
67 66 -39
68 66 -39
69 66 -39
70 66 -39
71 66 -35
72 66 -35
73 66 -32
74 66 -32
75 66 -32
76 66 -32
77 68 -42
78 68 -42
79 68 -36
80 68 -36
81 68 -36
82 69 -42
83 69 -42
84 69 -42
85 69 -42
86 69 -40
87 69 -40
88 69 -40
89 69 -40
90 69 -34
91 69 -34
92 69 -34
93 69 -34
94 72 -42
95 72 -42
96 72 -42
97 72 -38
98 72 -38
99 72 -38
100 80 -30
101 80 -30
102 80 -30
103 80 -30
104 80 -30
105 74 -42
106 74 -42
107 74 -40
108 74 -36
109 74 -36
110 75 -44
111 75 -44
112 75 -44
113 75 -44
114 77 -40
115 75 -37
116 75 -37
117 77 -38
118 77 -38
119 76 -4
120 76 -4
121 76 -4
122 76 -4
123 76 -4
124 76 -1
125 76 -1
126 76 -1
127 76 1
128 76 1
129 75 10
130 75 10
131 75 10
132 75 10
133 75 10
134 79 -2
135 79 1
136 79 1
137 79 1
138 79 7
139 79 7
140 79 7
141 79 7
142 82 -3
143 82 7
144 82 7
145 82 7
146 82 7
147 82 7
148 84 -3
149 84 -3
150 84 -1
151 84 -1
152 84 -1
153 84 -1
154 84 3
155 84 3
156 84 3
157 86 -3
158 86 -3
159 86 -3
160 89 1
161 89 1
162 89 5
163 89 5
164 73 35
165 73 35
166 73 35
167 73 38
168 73 38
169 75 36
170 75 36
171 75 40
172 75 40
173 75 40
174 75 44
175 77 35
176 77 35
177 77 35
178 77 35
179 77 41
180 77 41
181 77 41
182 77 41
183 80 32
184 80 32
185 80 32
186 80 32
187 80 32
188 80 32
189 80 43
190 80 43
191 80 43
192 83 37
193 83 37
194 83 37
195 83 37
196 83 37
197 83 39
198 83 39
199 83 39
200 83 39
201 83 44
202 83 44
203 83 44
204 83 44
205 84 41
206 84 41
207 84 41
208 85 35
209 85 35
210 85 35
211 85 35
212 85 35
213 89 44
214 89 44
215 89 44
216 27 38
217 27 38
218 27 38
219 27 38
220 27 38
221 40 35
222 40 35
223 40 35
224 25 40
225 25 40
226 25 40
227 25 42
228 25 42
229 25 42
230 25 42
231 34 41
232 34 41
233 34 41
234 34 41
235 36 44
236 36 44
237 36 44
238 36 38
239 36 38
240 36 38
241 36 38
242 36 38
243 36 42
244 36 42
245 36 44
246 36 44
247 36 44
248 36 44
249 36 44
250 38 38
251 38 38
252 38 38
253 40 40
254 40 40
255 40 40
256 40 40
257 40 40
258 40 43
259 40 43
260 40 43
261 40 43
262 44 41
263 44 41
264 44 45
265 0 -10
266 0 -10
267 0 -10
268 0 -10
269 0 -5
270 0 -5
271 8 -15
272 8 -15
273 7 -10
274 6 -7
275 6 -7
276 6 -7
277 6 -7
278 4 -5
279 4 -5
280 5 -3
281 5 -3
282 1 -3
283 1 -3
284 8 -5
285 8 -5
286 8 -5
287 8 -5
288 11 -6
289 11 -6
290 11 -6
291 11 -6
292 10 -5
293 10 -5
294 8 -4
295 8 -4
296 8 -4
297 8 -4
298 10 -1
299 10 -1
300 10 -1
301 10 -1
302 12 -1
303 6 0
304 6 0
305 6 0
306 6 0
307 6 0
308 10 0
309 10 0
310 15 0
311 15 0
312 15 0
313 15 0
314 15 0
315 20 10
316 20 10
317 10 5
318 10 5
319 12 6
320 12 6
321 12 6
322 12 6
323 8 4
324 8 4
325 8 4
326 8 4
327 8 4
328 6 3
329 6 3
330 10 10
331 10 10
332 8 8
333 8 8
334 8 8
335 8 8
336 4 5
337 4 5
338 4 5
339 4 5
340 5 6
341 5 6
342 5 6
343 6 9
344 6 9
345 6 9
346 18 -12
347 18 -12
348 23 -7
349 23 -7
350 23 -7
351 20 5
352 20 5
353 20 5
354 20 5
355 3 -5
356 3 -5
357 3 -5
358 3 -5
359 5 -9
360 5 -9
361 5 -9
362 5 -9
363 8 -14
364 8 -14
365 15 -8
366 15 -8
367 15 -8
368 20 1
369 20 1
370 15 7
371 6 -12
372 6 -12
373 6 -12
374 6 -12
375 15 -10
376 15 -10
377 -5 -5
378 -5 5
379 -5 5
380 -5 5
DEMAND_SECTION
1 0
2 20
3 2
4 2
5 1
6 2
7 2
8 2
9 1
10 10
11 2
12 1
13 2
14 2
15 2
16 10
17 2
18 2
19 2
20 2
21 1
22 10
23 1
24 10
25 2
26 2
27 2
28 2
29 1
30 2
31 2
32 1
33 10
34 2
35 2
36 1
37 10
38 2
39 2
40 1
41 10
42 2
43 2
44 2
45 1
46 10
47 2
48 1
49 10
50 2
51 10
52 2
53 2
54 2
55 2
56 10
57 2
58 1
59 10
60 2
61 2
62 2
63 2
64 10
65 2
66 10
67 2
68 2
69 2
70 1
71 2
72 2
73 2
74 2
75 2
76 1
77 10
78 2
79 10
80 2
81 1
82 2
83 2
84 2
85 2
86 10
87 2
88 2
89 2
90 10
91 2
92 2
93 1
94 2
95 2
96 2
97 2
98 2
99 1
100 2
101 2
102 2
103 2
104 1
105 10
106 1
107 10
108 2
109 1
110 2
111 2
112 2
113 1
114 2
115 2
116 2
117 2
118 2
119 10
120 2
121 2
122 2
123 2
124 10
125 2
126 2
127 10
128 2
129 10
130 2
131 2
132 2
133 1
134 20
135 10
136 2
137 2
138 10
139 2
140 2
141 2
142 10
143 2
144 2
145 2
146 2
147 1
148 10
149 1
150 2
151 2
152 2
153 1
154 10
155 2
156 1
157 2
158 2
159 1
160 2
161 2
162 20
163 1
164 10
165 2
166 1
167 10
168 1
169 10
170 2
171 10
172 2
173 2
174 10
175 2
176 2
177 2
178 2
179 10
180 2
181 2
182 2
183 10
184 2
185 2
186 2
187 2
188 1
189 2
190 2
191 1
192 10
193 2
194 2
195 2
196 1
197 2
198 2
199 2
200 1
201 10
202 2
203 2
204 2
205 10
206 2
207 2
208 10
209 2
210 2
211 2
212 1
213 10
214 2
215 1
216 10
217 2
218 2
219 2
220 1
221 10
222 2
223 1
224 10
225 2
226 2
227 10
228 2
229 2
230 2
231 2
232 2
233 2
234 1
235 10
236 2
237 1
238 2
239 2
240 2
241 2
242 1
243 10
244 1
245 20
246 10
247 2
248 2
249 1
250 2
251 2
252 1
253 20
254 2
255 2
256 2
257 2
258 2
259 2
260 2
261 1
262 2
263 1
264 10
265 2
266 2
267 2
268 1
269 10
270 2
271 10
272 1
273 10
274 2
275 2
276 2
277 2
278 10
279 1
280 20
281 1
282 2
283 2
284 10
285 2
286 2
287 1
288 10
289 2
290 2
291 2
292 2
293 2
294 10
295 2
296 2
297 2
298 2
299 2
300 2
301 1
302 10
303 2
304 2
305 2
306 2
307 1
308 10
309 1
310 10
311 2
312 2
313 2
314 1
315 10
316 2
317 10
318 1
319 2
320 2
321 2
322 1
323 2
324 2
325 2
326 2
327 1
328 10
329 1
330 10
331 2
332 2
333 2
334 2
335 1
336 2
337 2
338 2
339 2
340 2
341 2
342 2
343 2
344 2
345 1
346 10
347 2
348 10
349 2
350 1
351 2
352 2
353 2
354 1
355 2
356 2
357 2
358 1
359 2
360 2
361 2
362 2
363 10
364 1
365 10
366 2
367 1
368 10
369 1
370 10
371 2
372 2
373 2
374 1
375 2
376 2
377 20
378 10
379 2
380 1
DEPOT_SECTION
1
-1
EOF