SDVRP instances/p11/p11_00_tsplib0_split0.sol
379 -28 26 25 23 27 24 41 44 43 40 42 47 45 46 48 49 50 53 54 52 51 39 38 36 37 32 35 33 34 29 30 31 22 21 18 19 20 15 17 16 13 14 12 9 10 11 4 3 2 1 8 6 7 5 281 282 -74 75 73 72 71 70 80 78 79 89 90 92 91 96 98 97 108 107 114 115 101 100 103 99 102 117 116 113 106 105 104 109 112 110 111 95 94 93 81 83 84 82 77 76 87 86 85 88 65 68 67 69 66 56 57 55 61 58 62 60 59 346 345 -128 132 131 130 129 137 139 140 138 144 146 145 143 142 153 155 154 162 161 160 159 157 156 158 148 147 152 151 150 149 141 133 136 135 134 127 126 123 124 125 118 121 122 119 120 312 313 311 -164 165 163 169 168 174 177 175 176 187 182 186 183 184 185 209 207 208 211 210 194 192 195 193 191 197 199 198 196 204 206 205 214 213 212 203 201 200 202 189 190 188 173 181 180 179 178 172 170 171 167 166 319 318 320 321 328 -268 269 356 357 354 355 278 277 279 280 293 296 294 295 283 285 284 286 291 292 288 290 289 287 273 275 274 276 359 360 361 358 272 362 363 270 271 370 371 372 373 265 264 266 267 376 -304 306 302 303 305 307 308 300 298 297 299 301 309 310 365 364 366 64 63 375 374 347 349 348 368 367 350 353 351 352 315 314 369 330 329 331 332 333 316 317 322 323 326 324 325 327 336 338 335 337 377 379 378 -341 339 340 334 221 222 220 238 237 239 241 240 251 249 250 256 255 252 253 254 262 261 263 257 259 258 260 245 236 246 248 244 247 235 234 242 243 232 231 230 233 228 229 226 227 224 223 225 219 218 216 215 217 342 344 343 0 





OBJ=
1052.496
BEST_KNOWN=
0.000